
******************************************************************************
This program contains Ipopt, a library for large-scale nonlinear optimization.
 Ipopt is released as open source code under the Eclipse Public License (EPL).
         For more information visit http://projects.coin-or.org/Ipopt
******************************************************************************

This is Ipopt version 3.12.6, running with linear solver ma57.

Number of nonzeros in equality constraint Jacobian...:  1164338
Number of nonzeros in inequality constraint Jacobian.:        0
Number of nonzeros in Lagrangian Hessian.............:   647194

Total number of variables............................:   130050
                     variables with only lower bounds:        0
                variables with lower and upper bounds:    65025
                     variables with only upper bounds:    65025
Total number of equality constraints.................:    65025
Total number of inequality constraints...............:        0
        inequality constraints with only lower bounds:        0
   inequality constraints with lower and upper bounds:        0
        inequality constraints with only upper bounds:        0

iter    objective    inf_pr   inf_du lg(mu)  ||d||  lg(rg) alpha_du alpha_pr  ls
   0  1.2321924e-02 3.10e-06 1.00e+00  -1.0 0.00e+00    -  0.00e+00 0.00e+00   0
   1  1.1959514e-02 8.15e-18 2.00e-07  -1.7 1.96e-02    -  1.00e+00 1.00e+00f  1
   2  1.1956884e-02 5.69e-18 2.83e-08  -2.5 5.85e-02    -  1.00e+00 1.00e+00f  1
   3  1.1958943e-02 5.42e-18 1.51e-09  -3.8 1.89e-02    -  1.00e+00 1.00e+00f  1
   4  1.1959450e-02 5.76e-18 1.89e-11  -5.7 4.12e-03    -  1.00e+00 1.00e+00f  1
   5  1.1959409e-02 5.51e-18 3.09e-14  -8.6 1.59e-04    -  1.00e+00 1.00e+00h  1

Number of Iterations....: 5

                                   (scaled)                 (unscaled)
Objective...............:   1.1959408591151003e-02    1.1959408591151003e-02
Dual infeasibility......:   3.0887686614140819e-14    3.0887686614140819e-14
Constraint violation....:   5.5138668492702748e-18    5.5138668492702748e-18
Complementarity.........:   9.8751911972066678e-09    9.8751911972066678e-09
Overall NLP error.......:   9.8751911972066678e-09    9.8751911972066678e-09


Number of objective function evaluations             = 6
Number of objective gradient evaluations             = 6
Number of equality constraint evaluations            = 6
Number of inequality constraint evaluations          = 0
Number of equality constraint Jacobian evaluations   = 6
Number of inequality constraint Jacobian evaluations = 0
Number of Lagrangian Hessian evaluations             = 5
Total CPU secs in IPOPT (w/o function evaluations)   =     16.787
Total CPU secs in NLP function evaluations           =      1.617

EXIT: Optimal Solution Found.

************************ CUTEst statistics ************************


 Package used            :  IPOPT
 Problem                 :  RDW2D52B  
 # variables             =          132098
 # constraints           =           65025
 # objective functions   =        0.1300000E+02
 # objective gradients   =        0.7000000E+01
 # objective Hessians    =        0.6000000E+01
 # Hessian-vector prdct  =        0.0000000E+00
 # constraints functions =        0.1400000E+02
 # constraints gradients =        0.8000000E+01
 # constraints Hessians  =        0.6000000E+01
 Exit code               =               0
 Final f                 =   0.1195941E-01
 Set up time             =            1.23 seconds
 Solve time              =           36.91 seconds


******************************************************************

System Time =      11.4049997330 s.
